20 10
64 33 33 86 51 23 45 76 83 91
90 49 27 40 52 32 77 48 82 49
40 66 53 38 35 12 23 13 96 29
50 62 31 83 12 61 49 70 99 92
5 84 81 84 92 32 33 90 79 93
90 44 68 63 66 96 71 11 46 20
32 64 71 35 66 78 60 51 9 20
18 35 46 15 77 78 47 32 58 84
23 72 14 3 85 81 72 22 28 99
5 74 37 65 52 74 83 13 2 47
14 11 24 75 65 12 33 96 96 12
3 66 81 98 42 44 32 66 32 84
17 87 41 68 22 33 6 42 69 65
17 97 81 88 85 79 63 97 90 29
69 39 9 37 58 95 4 99 95 72
5 39 73 98 16 30 14 92 20 61
37 27 71 25 29 11 95 81 56 83
60 74 85 84 83 92 87 13 77 31
43 71 61 13 43 85 55 28 37 33
96 96 3 30 53 22 52 81 49 55
